135
110
239
221
119
154
128
217
146
251
238
194
224
252
234
257
194
207
180
200
211
299
209
237
233
246
246
196
184
215
222
247
246
187
185
249
277
201
187
237
289
186
182
234
210
279
223
226
237
248
267
212
215
230
195
241
214
261
231
281
199
204
258
214
250
209
265
246
225
228
254
247
249
223
248
245
244
243
259
231
231
218
238
227
258
297
254
252
253
267
252
241
257
246
255
243
236
230
236
281
281
229
275
242
242
242
268
274
273
247
266
251
266
290
277
234
273
273
284
272
274
270
292
229
286
288
274
239
285
266
266
291
280
268
285
284
291
284
295
311
254
280
319
263
279
276
282
282
283
305
267
282
271
306
281
306
287
275
302
306
297
289
331
297
292
287
295
290
290
299
296
286
283
290
311
286
289
307
319
293
291
300
289
306
324
305
292
304
298
319
312
303
327
328
315
310
286
285
280
332
313
328
308
315
294
295
334
312
325
304
311
295
313
300
321
325
346
320
327
320
321
319
318
310
347
325
327
319
327
337
329
331
349
325
349
340
354
319
320
